NAME : single.151420.tour
COMMENT : Length = 151420
COMMENT : Found by LKH [Keld Helsgaun] Thu Aug 22 22:50:59 2024
NAME : single.278.tour
COMMENT : Length = 278
COMMENT : Found by LKH [Keld Helsgaun] Tue Aug 20 21:32:06 2024
TYPE : TOUR
DIMENSION : 12
DIMENSION : 3
TOUR_SECTION
1
4
5
2
3
2
6
12
11
10
9
8
6
7
5
2
3
4
-1
EOF
